sat
(:binary-propagations  144
 :decisions            128
 :del-clause           50
 :final-checks         3
 :max-generation       1
 :max-memory           23.02
 :memory               20.81
 :mk-bool-var          310
 :mk-clause            85
 :mk-clause-binary     210
 :num-allocs           4744526
 :num-checks           1
 :propagations         168
 :quant-instantiations 50
 :restarts             2
 :rlimit-count         47904
 :time                 0.02)
